p edge 50 313 20
v 1 5
v 1 29
v 4 4 12 39 42
v 1 16
v 3 25 32 47
v 1 36
v 5 8 10 17 18 23
v 3 2 11 37
v 1 27
v 2 28 49
v 2 9 34
v 4 6 13 31 40
v 5 14 15 20 22 44
v 3 3 30 45
v 5 24 35 43 46 48
v 1 50
v 2 26 38
v 2 1 19
v 3 7 21 33
v 1 41
e 1 3
e 1 4
e 1 5
e 1 7
e 1 11
e 1 16
e 1 18
e 1 20
e 1 21
e 1 28
e 1 30
e 1 43
e 2 5
e 2 6
e 2 7
e 2 8
e 2 14
e 2 16
e 2 23
e 2 30
e 2 34
e 2 41
e 2 43
e 2 48
e 2 50
e 3 14
e 3 17
e 3 19
e 3 22
e 3 29
e 3 30
e 3 33
e 3 41
e 3 43
e 4 8
e 4 14
e 4 16
e 4 20
e 4 22
e 4 24
e 4 25
e 4 27
e 4 37
e 4 48
e 5 9
e 5 12
e 5 14
e 5 16
e 5 18
e 5 23
e 5 24
e 5 30
e 5 31
e 5 32
e 5 33
e 5 35
e 5 39
e 5 42
e 5 44
e 5 46
e 5 49
e 5 50
e 6 12
e 6 14
e 6 16
e 6 36
e 6 39
e 6 46
e 7 8
e 7 11
e 7 12
e 7 14
e 7 23
e 7 25
e 7 33
e 7 38
e 7 48
e 8 13
e 8 16
e 8 18
e 8 20
e 8 25
e 8 30
e 8 33
e 8 37
e 8 38
e 8 39
e 8 42
e 8 44
e 8 47
e 9 15
e 9 17
e 9 20
e 9 25
e 9 33
e 9 37
e 9 38
e 9 42
e 9 45
e 9 46
e 9 50
e 10 12
e 10 20
e 10 21
e 10 29
e 10 30
e 10 32
e 10 46
e 10 48
e 10 50
e 11 20
e 11 23
e 11 31
e 11 37
e 11 38
e 11 42
e 11 48
e 11 50
e 12 22
e 12 25
e 12 26
e 12 33
e 12 35
e 12 36
e 12 38
e 12 43
e 12 48
e 12 50
e 13 20
e 13 21
e 13 27
e 13 33
e 13 40
e 13 42
e 13 47
e 13 49
e 13 50
e 14 15
e 14 18
e 14 20
e 14 22
e 14 24
e 14 26
e 14 27
e 14 28
e 14 31
e 14 33
e 14 49
e 15 17
e 15 25
e 15 28
e 15 29
e 15 42
e 15 44
e 16 17
e 16 18
e 16 20
e 16 23
e 16 25
e 16 27
e 16 28
e 16 29
e 16 35
e 16 38
e 16 40
e 16 42
e 16 44
e 16 48
e 17 22
e 17 23
e 17 29
e 17 30
e 17 33
e 17 39
e 17 40
e 17 43
e 18 22
e 18 30
e 18 35
e 18 42
e 19 24
e 19 25
e 19 27
e 19 31
e 19 34
e 19 42
e 19 49
e 19 50
e 20 33
e 20 35
e 20 36
e 20 43
e 20 45
e 20 46
e 20 47
e 20 48
e 20 49
e 21 24
e 21 29
e 21 32
e 21 34
e 21 35
e 21 36
e 21 40
e 21 41
e 21 42
e 21 44
e 22 31
e 22 35
e 22 40
e 22 47
e 22 49
e 22 50
e 23 24
e 23 30
e 23 31
e 23 35
e 23 36
e 23 40
e 23 41
e 23 42
e 23 44
e 23 45
e 24 27
e 24 39
e 24 42
e 24 47
e 25 26
e 25 31
e 25 34
e 25 35
e 25 39
e 25 40
e 25 47
e 26 28
e 26 30
e 26 31
e 26 32
e 26 35
e 26 36
e 26 39
e 26 42
e 26 45
e 26 49
e 27 28
e 27 31
e 27 37
e 27 39
e 27 40
e 27 49
e 27 50
e 28 31
e 28 32
e 28 34
e 28 35
e 28 45
e 28 48
e 28 49
e 29 35
e 29 48
e 30 33
e 30 39
e 30 41
e 30 46
e 30 48
e 30 49
e 31 33
e 31 34
e 31 39
e 31 43
e 31 44
e 32 35
e 32 36
e 32 43
e 32 44
e 32 50
e 33 36
e 33 37
e 33 42
e 34 48
e 34 49
e 35 38
e 35 41
e 35 43
e 35 44
e 35 45
e 35 46
e 36 37
e 36 39
e 36 41
e 36 43
e 36 48
e 37 46
e 37 48
e 38 41
e 38 42
e 39 40
e 39 46
e 39 47
e 39 48
e 39 49
e 40 42
e 40 43
e 41 46
e 41 48
e 41 49
e 42 44
e 43 48
e 43 49
e 44 47
e 47 48
e 47 49
e 48 49
